% --------------------------------------------------------------------------------
% Surface-based TSP with MiniZinc
% Copyright (c) 2026 Yılmaz Arslanoğlu
%
% This file is licensed under the MIT License.
% You may obtain a copy of the License at
% https://opensource.org/licenses/MIT
%
% See the LICENSE file in the project root for the full license text.
% --------------------------------------------------------------------------------

N = 14;
P = 34;
T = 21;
E = 29;

u_dual_edges = [1, 1, 2, 2, 3, 3, 4, 4, 5, 6, 7, 7, 8, 9, 10, 10, 11, 11, 12, 12, 13, 15, 15, 16, 17, 18, 18, 19, 20];
v_dual_edges = [9, 4, 16, 3, 8, 5, 6, 5, 6, 7, 8, 9, 11, 14, 20, 17, 14, 15, 21, 13, 14, 19, 16, 17, 18, 19, 20, 21, 21];

subtree_node_indices = [1, 4, 6, 7, 9, 1, 9, 13, 14, 12, 13, 20, 10, 12, 21, 17, 2, 10, 16, 17, 10, 20, 18, 15, 16, 17, 18, 19, 7, 8, 9, 11, 14, 4, 5, 6, 1, 2, 3, 4, 5, 3, 5, 6, 7, 8, 18, 19, 20, 21, 2, 3, 8, 11, 15, 16, 11, 12, 13, 14, 15, 19, 21];
subtree_node_indices_start = [1, 6, 10, 12, 16, 20, 24, 29, 34, 37, 42, 47, 51, 57];
subtree_node_indices_length = [5, 4, 2, 4, 4, 4, 5, 5, 3, 5, 5, 4, 6, 7];

subtree_edge_indices = [1, 2, 7, 10, 12, 1, 14, 21, 20, 15, 19, 29, 3, 16, 24, 15, 16, 25, 27, 22, 23, 24, 25, 26, 11, 12, 13, 14, 17, 7, 8, 9, 2, 4, 6, 8, 5, 6, 9, 10, 11, 26, 27, 28, 29, 3, 4, 5, 13, 18, 23, 17, 18, 19, 20, 21, 22, 28];
subtree_edge_indices_start = [1, 6, 9, 10, 13, 16, 20, 25, 30, 33, 37, 42, 46, 52];
subtree_edges_length = [5, 3, 1, 3, 3, 4, 5, 5, 3, 4, 5, 4, 6, 7];

u_of_subtree_edges = [1, 1, 2, 3, 4, 1, 2, 3, 1, 1, 3, 1, 2, 1, 1, 2, 1, 1, 3, 1, 1, 2, 3, 4, 1, 1, 2, 3, 4, 1, 1, 2, 1, 2, 3, 4, 1, 1, 2, 3, 4, 1, 1, 2, 3, 1, 1, 2, 3, 4, 5, 1, 1, 2, 2, 3, 5, 6];
v_of_subtree_edges = [5, 2, 3, 4, 5, 2, 4, 4, 2, 2, 4, 4, 4, 3, 4, 3, 2, 4, 4, 5, 2, 3, 4, 5, 2, 3, 4, 5, 5, 3, 2, 3, 4, 3, 5, 5, 5, 2, 3, 4, 5, 2, 3, 4, 4, 6, 2, 3, 4, 5, 6, 4, 5, 7, 3, 4, 6, 7];

triangle_perimeters = [1004, 2529, 1266, 808, 637, 360, 360, 721, 420, 1156, 875, 810, 1009, 928, 603, 1273, 1082, 350, 616, 543, 790];
dual_edge_costs = [153, 372, 635, 633, 315, 318, 160, 276, 43, 157, 133, 70, 273, 197, 265, 400, 355, 247, 310, 211, 376, 232, 124, 514, 168, 163, 19, 221, 259];

pe_triangle_incidence_indices = [1, 9, 1, 4, 1, 2, 16, 2, 2, 3, 3, 8, 3, 5, 4, 6, 4, 5, 5, 6, 6, 7, 7, 8, 7, 9, 8, 11, 9, 14, 10, 20, 10, 10, 17, 11, 14, 11, 15, 12, 21, 12, 13, 12, 13, 14, 13, 15, 19, 15, 16, 16, 17, 17, 18, 18, 19, 18, 20, 19, 21, 20, 21];
pe_triangle_incidence_start = [1, 3, 5, 6, 8, 9, 11, 13, 15, 17, 19, 21, 23, 25, 27, 29, 31, 33, 34, 36, 38, 40, 42, 44, 45, 47, 48, 50, 52, 54, 56, 58, 60, 62];
pe_triangle_incidence_length = [2, 2, 1, 2, 1, 2, 2, 2, 2, 2, 2, 2, 2, 2, 2, 2, 2, 1, 2, 2, 2, 2, 2, 1, 2, 1, 2, 2, 2, 2, 2, 2, 2, 2];
